Solving original (integer) problem with strategy gdp.hull_exact...
--- Job model.gms Start 02/14/26 18:07:56 52.2.0 d8e408be LEX-LEG x86 64bit/Linux
--- Applying:
    /package/gams/52.2/gmsprmun.txt
--- GAMS Parameters defined
    Input /local/scratch/a/sgusev/repos/k_means/data/gams_gurobi_gdp.hull_exact/no_mode/2026-02-14_18-07-56/original/model.gms
    Output /local/scratch/a/sgusev/repos/k_means/data/gams_gurobi_gdp.hull_exact/no_mode/2026-02-14_18-07-56/original/output.lst
    ScrDir /local/scratch/a/sgusev/repos/k_means/data/gams_gurobi_gdp.hull_exact/no_mode/2026-02-14_18-07-56/original/225a/
    SysDir /package/gams/52.2/
    CurDir /local/scratch/a/sgusev/repos/k_means/data/gams_gurobi_gdp.hull_exact/no_mode/2026-02-14_18-07-56/original/
    LogOption 3
    AppendLog 1
Licensee: David Bernal / SECQUOIA Research Group         G251008+0003Ac-GEN
          Purdue University, Davidson School of Chemical EngineeringDCE4838
          225a/gamslice.dat
          5a82958a-fbca-4a23
          node:66820903 mem:995 cores:48 ipport:59377 v:2                  
          Evaluation license: Not for commercial or production use
          The time-limited license stops working on : Jun 30, 2027
System information: 48 physical cores and 995 Gb physical memory detected
GAMS 52.2.0   Copyright (C) 1987-2025 GAMS Development. All rights reserved
--- Starting compilation
--- model.gms(2481) 2 Mb
--- $echo File /local/scratch/a/sgusev/repos/k_means/data/gams_gurobi_gdp.hull_exact/no_mode/2026-02-14_18-07-56/original/gurobi.opt
--- model.gms(3679) 2 Mb
--- Starting execution: elapsed 0:00:00.014
--- model.gms(2490) 3 Mb
--- Generating MINLP model GAMS_MODEL
--- model.gms(2494) 5 Mb
---   749 rows  383 columns  1,833 non-zeroes
---   1,260 nl-code  240 nl-non-zeroes
---   60 discrete-columns
--- Range statistics (absolute non-zero finite values)
--- RHS       [min, max] : [ 1.000E+00, 1.000E+00] - Zero values observed as well
--- Bound     [min, max] : [ 1.000E+00, 4.800E+01] - Zero values observed as well
--- Matrix    [min, max] : [ 1.000E+00, 4.800E+01] - Zero values observed as well
--- model.gms(2494) 3 Mb
--- Executing GUROBI (Solvelink=5): elapsed 0:00:00.019
Reading parameter(s) from "/local/scratch/a/sgusev/repos/k_means/data/gams_gurobi_gdp.hull_exact/no_mode/2026-02-14_18-07-56/original/gurobi.opt"
>>  NonConvex 2
>>  Threads 1
>>  MIPGap 1e-06
>>  MIPGapAbs 1e-10
>>  FeasibilityTol 1e-06
>>  OptimalityTol 1e-06
>>  IntFeasTol 1e-05
Finished reading from "/local/scratch/a/sgusev/repos/k_means/data/gams_gurobi_gdp.hull_exact/no_mode/2026-02-14_18-07-56/original/gurobi.opt"

... GRB_LICENSE_FILE = /local/scratch/a/sgusev/gurobi.lic

    Gurobi           52.2.0 d8e408be Dec 8, 2025           LEG x86 64bit/Linux    

... GAMS/Gurobi Link license.
... GMO Q Extraction (ThreePass): 0.00s

    Gurobi Optimizer version 13.0.0 build v13.0.0rc1 (linux64 - "Oracle Linux Server 9.7")
    
    CPU model: AMD EPYC 7643 48-Core Processor, instruction set [SSE2|AVX|AVX2]
    Thread count: 48 physical cores, 96 logical processors, using up to 1 threads
    
    Non-default parameters:
    TimeLimit  300
    MIPGap  1e-06
    LogToConsole  0
    NonConvex  2
    Threads  1
    
    Optimize a model with 688 rows, 382 columns and 1580 nonzeros (Min)
    Model fingerprint: 0xe31c4d30
    Model has 12 linear objective coefficients
    Model has 60 quadratic constraints
    Variable types: 322 continuous, 60 integer (0 binary)
    Coefficient statistics:
      Matrix range     [1e+00, 5e+01]
      QMatrix range    [6e-03, 2e+00]
      Objective range  [1e+00, 1e+00]
      Bounds range     [1e+00, 5e+01]
      RHS range        [1e+00, 1e+00]
    Presolve removed 120 rows and 132 columns
    Presolve time: 0.01s
    Presolved: 918 rows, 550 columns, 2458 nonzeros
    Presolved model has 120 quadratic constraint(s)
    Variable types: 490 continuous, 60 integer (60 binary)
    
    Root relaxation: objective 0.000000e+00, 193 iterations, 0.00 seconds (0.00 work units)
    
        Nodes    |    Current Node    |     Objective Bounds      |     Work
     Expl Unexpl |  Obj  Depth IntInf | Incumbent    BestBd   Gap | It/Node Time
    
         0     0    0.00000    0    6          -    0.00000      -     -    0s
    H    0     0                       5.7610514    0.00000   100%     -    0s
         0     0    0.00000    0    8    5.76105    0.00000   100%     -    0s
         0     0    0.00000    0   14    5.76105    0.00000   100%     -    0s
    H    0     0                       3.5442174    0.00000   100%     -    0s
         0     0    0.00000    0   10    3.54422    0.00000   100%     -    0s
         0     0    0.00000    0   14    3.54422    0.00000   100%     -    0s
         0     0    0.00000    0    6    3.54422    0.00000   100%     -    0s
         0     0    0.00000    0   14    3.54422    0.00000   100%     -    0s
    H    0     0                       1.4822445    0.00000   100%     -    0s
    *    0     0               0       1.4822445    0.00000   100%     -    0s
         0     0    0.00000    0   10    1.48224    0.00000   100%     -    0s
         0     0    0.00000    0   12    1.48224    0.00000   100%     -    0s
         0     0    0.00000    0   12    1.48224    0.00000   100%     -    0s
         0     0    0.00000    0   10    1.48224    0.00000   100%     -    0s
         0     0    0.00000    0   16    1.48224    0.00000   100%     -    0s
         0     0    0.00000    0   16    1.48224    0.00000   100%     -    0s
         0     0    0.00000    0   15    1.48224    0.00000   100%     -    0s
         0     0    0.00000    0   15    1.48224    0.00000   100%     -    0s
         0     0    0.00000    0   15    1.48224    0.00000   100%     -    0s
         0     0    0.00000    0   15    1.48224    0.00000   100%     -    0s
         0     0    0.00000    0   17    1.48224    0.00000   100%     -    0s
         0     0    0.00000    0   12    1.48224    0.00000   100%     -    0s
         0     0    0.00000    0   14    1.48224    0.00000   100%     -    0s
         0     0    0.00000    0   14    1.48224    0.00000   100%     -    0s
         0     0    0.00000    0   14    1.48224    0.00000   100%     -    0s
         0     0    0.00000    0   19    1.48224    0.00000   100%     -    0s
         0     0    0.00000    0   18    1.48224    0.00000   100%     -    0s
         0     0    0.00000    0   16    1.48224    0.00000   100%     -    0s
         0     0    0.00000    0   16    1.48224    0.00000   100%     -    0s
         0     0    0.00000    0   11    1.48224    0.00000   100%     -    0s
         0     0    0.00000    0   14    1.48224    0.00000   100%     -    0s
         0     0    0.00000    0   14    1.48224    0.00000   100%     -    0s
         0     0    0.00000    0   22    1.48224    0.00000   100%     -    0s
         0     0    0.00000    0   18    1.48224    0.00000   100%     -    0s
         0     0    0.00000    0   16    1.48224    0.00000   100%     -    0s
         0     0    0.00000    0   16    1.48224    0.00000   100%     -    0s
         0     0    0.00000    0   20    1.48224    0.00000   100%     -    0s
         0     0    0.00000    0   17    1.48224    0.00000   100%     -    0s
         0     0    0.00000    0   19    1.48224    0.00000   100%     -    0s
         0     0    0.00000    0   12    1.48224    0.00000   100%     -    0s
         0     0    0.00000    0   14    1.48224    0.00000   100%     -    0s
         0     0    0.00000    0   14    1.48224    0.00000   100%     -    0s
         0     0    0.00000    0   16    1.48224    0.00000   100%     -    0s
         0     0    0.00000    0   16    1.48224    0.00000   100%     -    0s
         0     0    0.00000    0   16    1.48224    0.00000   100%     -    0s
         0     0    0.00000    0   16    1.48224    0.00000   100%     -    0s
         0     0    0.00000    0   16    1.48224    0.00000   100%     -    0s
         0     0    0.00000    0   16    1.48224    0.00000   100%     -    0s
         0     0    0.00000    0   18    1.48224    0.00000   100%     -    0s
         0     0    0.00000    0   16    1.48224    0.00000   100%     -    0s
         0     0    0.00000    0   14    1.48224    0.00000   100%     -    0s
         0     0    0.00000    0   14    1.48224    0.00000   100%     -    0s
         0     0    0.00000    0   16    1.48224    0.00000   100%     -    0s
         0     0    0.00000    0   12    1.48224    0.00000   100%     -    0s
         0     0    0.00000    0   14    1.48224    0.00000   100%     -    0s
         0     0    0.00000    0   14    1.48224    0.00000   100%     -    0s
         0     0    0.00000    0   18    1.48224    0.00000   100%     -    0s
         0     0    0.00000    0   18    1.48224    0.00000   100%     -    0s
         0     0    0.00000    0   16    1.48224    0.00000   100%     -    0s
         0     0    0.00000    0   14    1.48224    0.00000   100%     -    0s
         0     0    0.00000    0   16    1.48224    0.00000   100%     -    0s
         0     0    0.00000    0   14    1.48224    0.00000   100%     -    0s
         0     0    0.00000    0   20    1.48224    0.00000   100%     -    0s
         0     0    0.00000    0   20    1.48224    0.00000   100%     -    0s
         0     0    0.00000    0   20    1.48224    0.00000   100%     -    0s
         0     0    0.00000    0   14    1.48224    0.00000   100%     -    0s
         0     0    0.00000    0    4    1.48224    0.00000   100%     -    0s
         0     0    0.00000    0   14    1.48224    0.00000   100%     -    0s
         0     0    0.00000    0   14    1.48224    0.00000   100%     -    0s
         0     0    0.00000    0   16    1.48224    0.00000   100%     -    0s
         0     0    0.00000    0   16    1.48224    0.00000   100%     -    0s
         0     0    0.00000    0   16    1.48224    0.00000   100%     -    0s
         0     0    0.00000    0   16    1.48224    0.00000   100%     -    0s
         0     0    0.00000    0   14    1.48224    0.00000   100%     -    0s
         0     0    0.00000    0   12    1.48224    0.00000   100%     -    0s
         0     0    0.00000    0   12    1.48224    0.00000   100%     -    0s
         0     0    0.00000    0   12    1.48224    0.00000   100%     -    0s
         0     0    0.00000    0   14    1.48224    0.00000   100%     -    0s
         0     0    0.00000    0   14    1.48224    0.00000   100%     -    0s
         0     0    0.00000    0   14    1.48224    0.00000   100%     -    0s
         0     0    0.00000    0   14    1.48224    0.00000   100%     -    0s
         0     0    0.00000    0   16    1.48224    0.00000   100%     -    0s
         0     0    0.00000    0   12    1.48224    0.00000   100%     -    0s
         0     0    0.00000    0   16    1.48224    0.00000   100%     -    0s
         0     0    0.00000    0   14    1.48224    0.00000   100%     -    0s
         0     0    0.00000    0   18    1.48224    0.00000   100%     -    0s
         0     0    0.00000    0   18    1.48224    0.00000   100%     -    0s
         0     0    0.00000    0   16    1.48224    0.00000   100%     -    0s
         0     0    0.00000    0   16    1.48224    0.00000   100%     -    0s
         0     0    0.00000    0   16    1.48224    0.00000   100%     -    0s
         0     0    0.00000    0   16    1.48224    0.00000   100%     -    0s
         0     0    0.00000    0   16    1.48224    0.00000   100%     -    0s
         0     0    0.00000    0   15    1.48224    0.00000   100%     -    0s
         0     0    0.00000    0   16    1.48224    0.00000   100%     -    0s
         0     0    0.00000    0   16    1.48224    0.00000   100%     -    0s
         0     0    0.00000    0   18    1.48224    0.00000   100%     -    0s
         0     0    0.00000    0   14    1.48224    0.00000   100%     -    0s
         0     0    0.00000    0   16    1.48224    0.00000   100%     -    0s
         0     0    0.00000    0   16    1.48224    0.00000   100%     -    0s
         0     0    0.00000    0   16    1.48224    0.00000   100%     -    0s
         0     0    0.00000    0   16    1.48224    0.00000   100%     -    0s
         0     0    0.00000    0   18    1.48224    0.00000   100%     -    0s
         0     0    0.00000    0   12    1.48224    0.00000   100%     -    0s
         0     0    0.00000    0   16    1.48224    0.00000   100%     -    0s
         0     0    0.00000    0   16    1.48224    0.00000   100%     -    0s
         0     0    0.00000    0   18    1.48224    0.00000   100%     -    0s
         0     0    0.00000    0   16    1.48224    0.00000   100%     -    0s
         0     0    0.00000    0   16    1.48224    0.00000   100%     -    0s
         0     0    0.00000    0   14    1.48224    0.00000   100%     -    0s
         0     0    0.00000    0   21    1.48224    0.00000   100%     -    0s
         0     0    0.00000    0   12    1.48224    0.00000   100%     -    0s
         0     0    0.00000    0   10    1.48224    0.00000   100%     -    0s
         0     0    0.00000    0   10    1.48224    0.00000   100%     -    0s
         0     0    0.00000    0   14    1.48224    0.00000   100%     -    0s
         0     0    0.00000    0   14    1.48224    0.00000   100%     -    0s
         0     0    0.00000    0   16    1.48224    0.00000   100%     -    0s
         0     0    0.00000    0   12    1.48224    0.00000   100%     -    0s
         0     0    0.00000    0   16    1.48224    0.00000   100%     -    0s
         0     0    0.00000    0   12    1.48224    0.00000   100%     -    0s
         0     0    0.00000    0   16    1.48224    0.00000   100%     -    0s
         0     0    0.00000    0   12    1.48224    0.00000   100%     -    0s
         0     0    0.00000    0   20    1.48224    0.00000   100%     -    0s
         0     0    0.00000    0   12    1.48224    0.00000   100%     -    0s
         0     0    0.00000    0   16    1.48224    0.00000   100%     -    0s
         0     0    0.00000    0   16    1.48224    0.00000   100%     -    0s
         0     0    0.00000    0   16    1.48224    0.00000   100%     -    0s
         0     0    0.00000    0   16    1.48224    0.00000   100%     -    0s
         0     0    0.00000    0   17    1.48224    0.00000   100%     -    0s
         0     0    0.00000    0   16    1.48224    0.00000   100%     -    0s
         0     0    0.00000    0   16    1.48224    0.00000   100%     -    0s
         0     0    0.00000    0   16    1.48224    0.00000   100%     -    0s
         0     0    0.00000    0   18    1.48224    0.00000   100%     -    0s
         0     0    0.00000    0   12    1.48224    0.00000   100%     -    0s
         0     0    0.00000    0   18    1.48224    0.00000   100%     -    0s
         0     0    0.00000    0   18    1.48224    0.00000   100%     -    0s
         0     0    0.00000    0   18    1.48224    0.00000   100%     -    0s
         0     0    0.00000    0   16    1.48224    0.00000   100%     -    0s
         0     0    0.00000    0   18    1.48224    0.00000   100%     -    0s
         0     0    0.00000    0   16    1.48224    0.00000   100%     -    0s
         0     0    0.00000    0   16    1.48224    0.00000   100%     -    0s
         0     0    0.00000    0   16    1.48224    0.00000   100%     -    0s
         0     0    0.00000    0   14    1.48224    0.00000   100%     -    0s
         0     0    0.00000    0   14    1.48224    0.00000   100%     -    0s
         0     0    0.00000    0   14    1.48224    0.00000   100%     -    0s
         0     0    0.00000    0   14    1.48224    0.00000   100%     -    0s
         0     0    0.00000    0   16    1.48224    0.00000   100%     -    0s
         0     0    0.00000    0   16    1.48224    0.00000   100%     -    0s
         0     0    0.00000    0   14    1.48224    0.00000   100%     -    0s
         0     0    0.00000    0   10    1.48224    0.00000   100%     -    0s
         0     0    0.00000    0   12    1.48224    0.00000   100%     -    0s
         0     0    0.00000    0   12    1.48224    0.00000   100%     -    0s
         0     0    0.00000    0   20    1.48224    0.00000   100%     -    0s
         0     0    0.00000    0   12    1.48224    0.00000   100%     -    0s
         0     0    0.00000    0   14    1.48224    0.00000   100%     -    0s
         0     0    0.00000    0   14    1.48224    0.00000   100%     -    0s
         0     0    0.00000    0    8    1.48224    0.00000   100%     -    0s
         0     0    0.00000    0   12    1.48224    0.00000   100%     -    0s
         0     0    0.00000    0   12    1.48224    0.00000   100%     -    0s
         0     0    0.00000    0   16    1.48224    0.00000   100%     -    0s
         0     0    0.00000    0   16    1.48224    0.00000   100%     -    0s
         0     0    0.00000    0   18    1.48224    0.00000   100%     -    0s
         0     0    0.00000    0   16    1.48224    0.00000   100%     -    0s
         0     0    0.00000    0   18    1.48224    0.00000   100%     -    0s
         0     0    0.00000    0   16    1.48224    0.00000   100%     -    0s
         0     0    0.00000    0   18    1.48224    0.00000   100%     -    0s
         0     0    0.00000    0   18    1.48224    0.00000   100%     -    0s
         0     0    0.00000    0   16    1.48224    0.00000   100%     -    0s
         0     0    0.00000    0   14    1.48224    0.00000   100%     -    0s
         0     0    0.00000    0   16    1.48224    0.00000   100%     -    0s
         0     0    0.00000    0   16    1.48224    0.00000   100%     -    0s
         0     0    0.00000    0   18    1.48224    0.00000   100%     -    0s
         0     0    0.00000    0   18    1.48224    0.00000   100%     -    0s
         0     0    0.00000    0   19    1.48224    0.00000   100%     -    0s
         0     0    0.00000    0   13    1.48224    0.00000   100%     -    0s
         0     0    0.00000    0   13    1.48224    0.00000   100%     -    0s
         0     0    0.00000    0   13    1.48224    0.00000   100%     -    0s
         0     0    0.00000    0   20    1.48224    0.00000   100%     -    0s
         0     0    0.00000    0   10    1.48224    0.00000   100%     -    0s
         0     0    0.00000    0   12    1.48224    0.00000   100%     -    0s
         0     0    0.00000    0   12    1.48224    0.00000   100%     -    0s
         0     0    0.00000    0   16    1.48224    0.00000   100%     -    0s
         0     0    0.00000    0   16    1.48224    0.00000   100%     -    0s
         0     0    0.00000    0   16    1.48224    0.00000   100%     -    0s
         0     0    0.00000    0    9    1.48224    0.00000   100%     -    0s
         0     0    0.00000    0   12    1.48224    0.00000   100%     -    0s
         0     0    0.00000    0   12    1.48224    0.00000   100%     -    0s
         0     0    0.00000    0   14    1.48224    0.00000   100%     -    0s
         0     0    0.00000    0   14    1.48224    0.00000   100%     -    0s
         0     0    0.00000    0   16    1.48224    0.00000   100%     -    0s
         0     0    0.00000    0   16    1.48224    0.00000   100%     -    0s
         0     0    0.00000    0   16    1.48224    0.00000   100%     -    0s
         0     0    0.00000    0   12    1.48224    0.00000   100%     -    0s
         0     0    0.00000    0   18    1.48224    0.00000   100%     -    0s
         0     0    0.00000    0   14    1.48224    0.00000   100%     -    0s
         0     0    0.00000    0   14    1.48224    0.00000   100%     -    0s
         0     0    0.00000    0   14    1.48224    0.00000   100%     -    0s
         0     0    0.00000    0   16    1.48224    0.00000   100%     -    0s
         0     0    0.00000    0   16    1.48224    0.00000   100%     -    0s
         0     0    0.00000    0   18    1.48224    0.00000   100%     -    0s
         0     0    0.00000    0   18    1.48224    0.00000   100%     -    0s
         0     0    0.00000    0   18    1.48224    0.00000   100%     -    0s
         0     0    0.00000    0   16    1.48224    0.00000   100%     -    0s
         0     0    0.00000    0   16    1.48224    0.00000   100%     -    0s
         0     0    0.00000    0   16    1.48224    0.00000   100%     -    0s
         0     0    0.00000    0   18    1.48224    0.00000   100%     -    0s
         0     0    0.00000    0   10    1.48224    0.00000   100%     -    0s
         0     0    0.00000    0   14    1.48224    0.00000   100%     -    0s
         0     0    0.00000    0   12    1.48224    0.00000   100%     -    0s
         0     0    0.00000    0   17    1.48224    0.00000   100%     -    0s
         0     0    0.00000    0   14    1.48224    0.00000   100%     -    0s
         0     2    0.00000    0   12    1.48224    0.00000   100%     -    0s
    H   54    30                       1.4822441    0.00000   100%  22.2    0s
    H   65    41                       1.4822437    0.00000   100%  28.5    0s
    H  111    79                       1.4822435    0.00000   100%  32.5    0s
    H  201   135                       1.4461424    0.00000   100%  34.8    1s
    H  219   142                       1.3777762    0.00000   100%  34.9    1s
    H  363   214                       1.3674352    0.00000   100%  65.5    2s
    H  364   204                       1.3674352    0.00000   100%  65.3    2s
    H  365   194                       1.3674352    0.00000   100%  65.7    2s
    H  374   189                       1.3674351    0.00000   100%  68.0    2s
    H  375   179                       1.3674351    0.00000   100%  68.5    2s
    H  379   172                       1.3674351    0.00000   100%  69.6    2s
    H  381   165                       1.3674351    0.00000   100%  69.8    2s
    H  382   157                       1.3674351    0.00000   100%  70.1    2s
    H  415   153                       1.3674351    0.00000   100%  69.2    2s
    H  446   159                       1.3674351    0.00000   100%  71.4    2s
    H  684   170                       0.9833396    0.00000   100%  76.3    3s
    H  687   165                       0.9833396    0.00000   100%  76.1    3s
    H  916   249                       0.9833395    0.00000   100%  80.8    4s
    H 1000   288                       0.9833395    0.00000   100%  81.6    4s
    H 1066   318                       0.9833395    0.00000   100%  86.5    4s
    H 1091   335                       0.9833395    0.00000   100%  86.2    4s
      1093   339    0.00117   22   24    0.98334    0.00000   100%  87.1    5s
      3169   823    0.88940   33   15    0.98334    0.15719  84.0%  93.6   10s
    H 4927   990                       0.9570844    0.33001  65.5%  89.9   13s
    H 5648   907                       0.8989990    0.41561  53.8%  86.3   14s
      6156   849     cutoff   34         0.89900    0.45434  49.5%  84.0   15s
    H 7367   479                       0.8989989    0.62431  30.6%  79.5   16s
    H 7567   386                       0.8989985    0.66217  26.3%  78.5   16s
    
    Cutting planes:
      Implied bound: 9
      Projected implied bound: 1
      MIR: 1
      Flow cover: 3
      Relax-and-lift: 1
    
    Explored 8157 nodes (644386 simplex iterations) in 17.60 seconds (16.90 work units)
    Thread count was 1 (of 96 available processors)
    
    Solution count 7: 0.898999 0.957084 0.983339 ... 5.76105
    
    Optimal solution found (tolerance 1.00e-06)
    Best objective 8.989985431785e-01, best bound 8.989985431785e-01, gap 0.0000%
    
    User-callback calls 8285, time in user-callback 0.00 sec

... Solving fixed model...

    Gurobi Optimizer version 13.0.0 build v13.0.0rc1 (linux64 - "Oracle Linux Server 9.7")
    
    CPU model: AMD EPYC 7643 48-Core Processor, instruction set [SSE2|AVX|AVX2]
    Thread count: 48 physical cores, 96 logical processors, using up to 1 threads
    
    Non-default parameters:
    TimeLimit  300
    MIPGap  1e-06
    LogToConsole  0
    NonConvex  2
    Threads  1
    
    Optimize a model with 688 rows, 382 columns and 1580 nonzeros (Min)
    Model fingerprint: 0xf91f6874
    Model has 12 linear objective coefficients
    Model has 60 quadratic constraints
    Coefficient statistics:
      Matrix range     [1e+00, 5e+01]
      QMatrix range    [6e-03, 2e+00]
      Objective range  [1e+00, 1e+00]
      Bounds range     [1e+00, 5e+01]
      RHS range        [1e+00, 1e+00]
    Presolve removed 684 rows and 361 columns
    Presolve time: 0.00s
    Presolved: 47 rows, 59 columns, 112 nonzeros
    Presolved model has 12 second-order cone constraints
    Ordering time: 0.00s
    
    Barrier statistics:
     AA' NZ     : 2.160e+02
     Factor NZ  : 3.670e+02
     Factor Ops : 3.655e+03 (less than 1 second per iteration)
     Threads    : 1
    
                      Objective                Residual
    Iter       Primal          Dual         Primal    Dual     Compl     Time
       0   3.82652139e+02 -1.95528688e+02  1.18e+01 2.54e+00  1.05e+01     0s
       1   4.34105943e+01 -3.45880795e+01  1.30e-05 2.79e-06  8.97e-01     0s
       2   2.61253257e+00 -1.01624146e+01  4.68e-07 9.05e-07  1.47e-01     0s
       3   1.43101578e+00 -1.95400501e+00  1.14e-08 2.09e-07  3.89e-02     0s
       4   1.05429322e+00  3.31642288e-01  1.52e-11 3.92e-08  8.31e-03     0s
       5   9.08551325e-01  8.35458301e-01  1.22e-12 4.14e-09  8.40e-04     0s
       6   9.00870607e-01  8.83787053e-01  2.27e-13 9.10e-10  1.96e-04     0s
       7   8.99082215e-01  8.98750473e-01  1.17e-12 6.08e-13  3.81e-06     0s
       8   8.99004319e-01  8.98995850e-01  1.17e-10 7.28e-14  9.74e-08     0s
       9   8.98999019e-01  8.98998223e-01  2.44e-09 1.81e-12  9.14e-09     0s
    
    Barrier solved model in 9 iterations and 0.00 seconds (0.00 work units)
    Optimal objective 8.98999019e-01
    
    
    User-callback calls 0, time in user-callback 0.00 sec
    Warning: to get QCP duals, please set parameter QCPDual to 1

--- Reading solution for model GAMS_MODEL
***
*** Solver did not provide marginals for model GAMS_MODEL
***
--- Executing after solve: elapsed 0:00:17.650
--- model.gms(2497) 3 Mb
--- model.gms(3679) 5 Mb
--- Putfile results /local/scratch/a/sgusev/repos/k_means/data/gams_gurobi_gdp.hull_exact/no_mode/2026-02-14_18-07-56/original/results.dat
--- Putfile statresults /local/scratch/a/sgusev/repos/k_means/data/gams_gurobi_gdp.hull_exact/no_mode/2026-02-14_18-07-56/original/resultsstat.dat
*** Status: Normal completion
--- Job model.gms Stop 02/14/26 18:08:14 elapsed 0:00:17.652
Original problem solved. Time taken: 18.230582237243652 seconds
Original objective value: 0.898999018574993
